(set-logic ALL)
(declare-const k Int)
(declare-fun %Y () (_ BitVec k))
(declare-fun %X () (_ BitVec k))
(assert (not (= (bvmul (bvsub (_ bv1 k) %X) (bvsub (_ bv0 k) %Y)) (bvmul %X %Y))))
(check-sat)